CLT04
Position Depot: Random
Horizon for Depot: Large
Position of customers: Cluster
Distribution of the demand: Small
Width of time windows: Tight
Distribution of the service: Large

VEHICLE 
NUMBER 	 CAPACITY 
 9 	 	 82 
 
CUSTOMER
CUST NO. 	 XCOORD.  	 YCOORD. 	 DEMAND 	 READY TIME 	 DUE DATE 	 SERVICE TIME 
 0 	 	 879 	 	 964 	 	 0 	 	 0 	 	 3594 	 	 0 
  1 	 	 183 	 	 644 	 	 9 	 	 1842 	 	 1962 	 	 165 
  2 	 	 654 	 	 533 	 	 9 	 	 490 	 	 678 	 	 186 
  3 	 	 513 	 	 624 	 	 6 	 	 3221 	 	 3334 	 	 110 
  4 	 	 859 	 	 899 	 	 8 	 	 2673 	 	 2755 	 	 186 
  5 	 	 954 	 	 885 	 	 6 	 	 2035 	 	 2215 	 	 161 
  6 	 	 522 	 	 607 	 	 7 	 	 2755 	 	 2816 	 	 101 
  7 	 	 661 	 	 546 	 	 5 	 	 326 	 	 518 	 	 194 
  8 	 	 679 	 	 847 	 	 6 	 	 622 	 	 704 	 	 156 
  9 	 	 821 	 	 911 	 	 9 	 	 1327 	 	 1413 	 	 105 
  10 	 	 247 	 	 667 	 	 6 	 	 1658 	 	 1802 	 	 129 
  11 	 	 658 	 	 534 	 	 10 	 	 2280 	 	 2375 	 	 169 
  12 	 	 499 	 	 571 	 	 9 	 	 1387 	 	 1583 	 	 121 
  13 	 	 402 	 	 520 	 	 10 	 	 2688 	 	 2746 	 	 138 
  14 	 	 846 	 	 960 	 	 7 	 	 120 	 	 298 	 	 192 
  15 	 	 878 	 	 918 	 	 9 	 	 2481 	 	 2588 	 	 135 
  16 	 	 518 	 	 620 	 	 6 	 	 389 	 	 548 	 	 129 
  17 	 	 655 	 	 513 	 	 6 	 	 447 	 	 553 	 	 176 
  18 	 	 211 	 	 765 	 	 5 	 	 1670 	 	 1869 	 	 111 
  19 	 	 825 	 	 974 	 	 8 	 	 1509 	 	 1606 	 	 190 
  20 	 	 495 	 	 619 	 	 5 	 	 1000 	 	 1133 	 	 153 
  21 	 	 14 	 	 666 	 	 6 	 	 2698 	 	 2767 	 	 142 
  22 	 	 734 	 	 544 	 	 5 	 	 3265 	 	 3364 	 	 183 
  23 	 	 860 	 	 962 	 	 10 	 	 958 	 	 1051 	 	 131 
  24 	 	 433 	 	 768 	 	 10 	 	 1024 	 	 1221 	 	 100 
  25 	 	 607 	 	 611 	 	 10 	 	 1206 	 	 1287 	 	 178 
  26 	 	 423 	 	 694 	 	 10 	 	 1098 	 	 1260 	 	 115 
  27 	 	 730 	 	 929 	 	 9 	 	 795 	 	 967 	 	 139 
  28 	 	 580 	 	 580 	 	 6 	 	 2150 	 	 2265 	 	 134 
  29 	 	 539 	 	 555 	 	 5 	 	 733 	 	 821 	 	 115 
  30 	 	 138 	 	 686 	 	 8 	 	 2567 	 	 2660 	 	 163 
  31 	 	 703 	 	 575 	 	 6 	 	 3013 	 	 3106 	 	 151 
  32 	 	 237 	 	 593 	 	 6 	 	 2780 	 	 2881 	 	 197 
  33 	 	 505 	 	 633 	 	 5 	 	 3139 	 	 3204 	 	 122 
  34 	 	 127 	 	 790 	 	 8 	 	 1423 	 	 1592 	 	 158 
  35 	 	 207 	 	 548 	 	 9 	 	 3337 	 	 3470 	 	 132 
  36 	 	 616 	 	 548 	 	 6 	 	 2715 	 	 2788 	 	 129 
  37 	 	 251 	 	 559 	 	 8 	 	 1521 	 	 1585 	 	 102 
  38 	 	 866 	 	 874 	 	 8 	 	 -85 	 	 100 	 	 120 
  39 	 	 166 	 	 658 	 	 7 	 	 775 	 	 853 	 	 189 
  40 	 	 853 	 	 777 	 	 5 	 	 1111 	 	 1233 	 	 138 
  41 	 	 873 	 	 859 	 	 6 	 	 3361 	 	 3515 	 	 151 
  42 	 	 657 	 	 620 	 	 9 	 	 360 	 	 513 	 	 146 
  43 	 	 699 	 	 467 	 	 5 	 	 1348 	 	 1511 	 	 187 
  44 	 	 296 	 	 604 	 	 7 	 	 1877 	 	 2021 	 	 186 
  45 	 	 731 	 	 602 	 	 7 	 	 310 	 	 430 	 	 174 
  46 	 	 469 	 	 619 	 	 9 	 	 2980 	 	 3050 	 	 134 
  47 	 	 222 	 	 611 	 	 6 	 	 2177 	 	 2282 	 	 125 
  48 	 	 835 	 	 931 	 	 10 	 	 3287 	 	 3365 	 	 156 
  49 	 	 656 	 	 599 	 	 7 	 	 2518 	 	 2599 	 	 113 
  50 	 	 102 	 	 592 	 	 5 	 	 867 	 	 947 	 	 148 
  51 	 	 657 	 	 544 	 	 10 	 	 454 	 	 522 	 	 151 
  52 	 	 191 	 	 711 	 	 5 	 	 1381 	 	 1567 	 	 192 
  53 	 	 548 	 	 647 	 	 6 	 	 2670 	 	 2867 	 	 103 
  54 	 	 850 	 	 871 	 	 10 	 	 1549 	 	 1619 	 	 192 
  55 	 	 205 	 	 608 	 	 8 	 	 2392 	 	 2488 	 	 114 
  56 	 	 874 	 	 925 	 	 6 	 	 1753 	 	 1906 	 	 195 
  57 	 	 847 	 	 991 	 	 6 	 	 2882 	 	 2991 	 	 179 
  58 	 	 825 	 	 802 	 	 6 	 	 3475 	 	 3590 	 	 163 
  59 	 	 494 	 	 438 	 	 6 	 	 1517 	 	 1646 	 	 158 
  60 	 	 901 	 	 900 	 	 6 	 	 463 	 	 527 	 	 132 
  61 	 	 236 	 	 607 	 	 5 	 	 2983 	 	 3087 	 	 132 
  62 	 	 545 	 	 582 	 	 6 	 	 1587 	 	 1749 	 	 185 
  63 	 	 237 	 	 773 	 	 9 	 	 596 	 	 742 	 	 137 
  64 	 	 906 	 	 903 	 	 8 	 	 2490 	 	 2552 	 	 146 
  65 	 	 234 	 	 695 	 	 6 	 	 1351 	 	 1445 	 	 146 
  66 	 	 800 	 	 890 	 	 6 	 	 207 	 	 362 	 	 121 
  67 	 	 172 	 	 601 	 	 8 	 	 3039 	 	 3109 	 	 160 
  68 	 	 939 	 	 907 	 	 8 	 	 1393 	 	 1485 	 	 106 
  69 	 	 643 	 	 549 	 	 10 	 	 1873 	 	 1986 	 	 171 
  70 	 	 850 	 	 903 	 	 10 	 	 2678 	 	 2845 	 	 110 
  71 	 	 489 	 	 661 	 	 10 	 	 490 	 	 543 	 	 162 
  72 	 	 108 	 	 673 	 	 6 	 	 1221 	 	 1297 	 	 136 
  73 	 	 663 	 	 455 	 	 8 	 	 1054 	 	 1104 	 	 120 
  74 	 	 233 	 	 694 	 	 10 	 	 2792 	 	 2842 	 	 113 
  75 	 	 746 	 	 524 	 	 10 	 	 901 	 	 1063 	 	 191 
  76 	 	 540 	 	 588 	 	 7 	 	 453 	 	 650 	 	 104 
  77 	 	 191 	 	 641 	 	 7 	 	 3294 	 	 3466 	 	 156 
  78 	 	 742 	 	 909 	 	 7 	 	 1328 	 	 1496 	 	 117 
  79 	 	 834 	 	 739 	 	 5 	 	 2460 	 	 2646 	 	 137 
  80 	 	 734 	 	 468 	 	 10 	 	 792 	 	 871 	 	 129 
  81 	 	 717 	 	 519 	 	 5 	 	 371 	 	 520 	 	 136 
  82 	 	 708 	 	 471 	 	 8 	 	 623 	 	 821 	 	 135 
  83 	 	 662 	 	 586 	 	 5 	 	 3291 	 	 3373 	 	 191 
  84 	 	 301 	 	 645 	 	 9 	 	 1301 	 	 1482 	 	 144 
  85 	 	 367 	 	 603 	 	 8 	 	 679 	 	 861 	 	 123 
  86 	 	 703 	 	 585 	 	 6 	 	 3165 	 	 3259 	 	 165 
  87 	 	 842 	 	 911 	 	 10 	 	 2004 	 	 2203 	 	 122 
  88 	 	 563 	 	 393 	 	 9 	 	 975 	 	 1169 	 	 150 
  89 	 	 597 	 	 605 	 	 5 	 	 1720 	 	 1811 	 	 176 
  90 	 	 134 	 	 731 	 	 10 	 	 3403 	 	 3508 	 	 112 
  91 	 	 847 	 	 906 	 	 6 	 	 2661 	 	 2724 	 	 174 
  92 	 	 633 	 	 471 	 	 5 	 	 1662 	 	 1821 	 	 187 
  93 	 	 916 	 	 912 	 	 10 	 	 1761 	 	 1938 	 	 161 
  94 	 	 212 	 	 635 	 	 7 	 	 704 	 	 818 	 	 177 
  95 	 	 619 	 	 551 	 	 7 	 	 1258 	 	 1314 	 	 147 
  96 	 	 500 	 	 615 	 	 9 	 	 2066 	 	 2176 	 	 132 
  97 	 	 198 	 	 667 	 	 5 	 	 2374 	 	 2478 	 	 141 
  98 	 	 720 	 	 440 	 	 7 	 	 877 	 	 1069 	 	 153 
  99 	 	 153 	 	 526 	 	 8 	 	 765 	 	 932 	 	 125 
  100 	 	 867 	 	 905 	 	 9 	 	 412 	 	 541 	 	 117 
 